\ Model Cl_35_Ins_6.lp
\ LP format - for model browsing. Use MPS format to capture full model detail.
Maximize
 
Subject To
 obj1: y[0] = 0
 obj2: y[1] = 0
 obj1_Exp: - y[0] + 95 x[0] + 94 x[1] + 85 x[2] + 84 x[3] + 84 x[4]
   + 77 x[5] + 73 x[6] + 70 x[7] + 68 x[8] + 65 x[9] + 64 x[10] + 63 x[11]
   + 58 x[12] + 55 x[13] + 55 x[14] + 49 x[15] + 43 x[16] + 42 x[17]
   + 40 x[18] + 40 x[19] + 34 x[20] + 34 x[21] + 30 x[22] + 29 x[23]
   + 27 x[24] + 24 x[25] + 24 x[26] + 20 x[27] + 17 x[28] + 17 x[29]
   + 9 x[30] + 5 x[31] + 4 x[32] + 4 x[33] + x[34] = 0
 obj2_Exp: - y[1] + 56 x[0] + 96 x[1] + 93 x[2] + 84 x[3] + 65 x[4]
   + 23 x[5] + 81 x[6] + 4 x[7] + 90 x[8] + 63 x[9] + 72 x[10] + 36 x[11]
   + 9 x[12] + 28 x[13] + 73 x[14] + 59 x[15] + 26 x[16] + 15 x[17]
   + 88 x[18] + 48 x[19] + 24 x[20] + 21 x[21] + 35 x[22] + 80 x[23]
   + 70 x[24] + 52 x[25] + 92 x[26] + 13 x[27] + 13 x[28] + 51 x[29]
   + 16 x[30] + 76 x[31] + 49 x[32] + 47 x[33] + 14 x[34] = 0
 Budget: 105 x[0] + 104 x[1] + 95 x[2] + 94 x[3] + 94 x[4] + 87 x[5]
   + 83 x[6] + 80 x[7] + 78 x[8] + 75 x[9] + 74 x[10] + 73 x[11] + 68 x[12]
   + 65 x[13] + 65 x[14] + 59 x[15] + 53 x[16] + 52 x[17] + 50 x[18]
   + 50 x[19] + 44 x[20] + 44 x[21] + 40 x[22] + 39 x[23] + 37 x[24]
   + 34 x[25] + 34 x[26] + 30 x[27] + 27 x[28] + 27 x[29] + 19 x[30]
   + 15 x[31] + 14 x[32] + 14 x[33] + 11 x[34] <= 578
Bounds
Binaries
 x[0] x[1] x[2] x[3] x[4] x[5] x[6] x[7] x[8] x[9] x[10] x[11] x[12] x[13]
 x[14] x[15] x[16] x[17] x[18] x[19] x[20] x[21] x[22] x[23] x[24] x[25]
 x[26] x[27] x[28] x[29] x[30] x[31] x[32] x[33] x[34]
Generals
 y[0] y[1]
End
